
100
26064

615 415
588 288
1045 845
744 444
729 529
852 552
539 339
840 640
1101 901
372 72
761 561
465 265
856 656
924 624
246 46
313 113
729 529
1059 859
1098 798
1024 824
438 138
551 351
777 577
567 367
431 231
1123 923
936 636
599 399
677 477
900 700
960 760
1080 780
535 335
1168 968
964 764
471 271
372 172
631 431
461 261
1078 878
210 10
1018 818
462 162
1012 812
633 433
432 132
1186 986
619 419
1179 979
523 323
438 238
756 556
395 195
778 578
1008 708
942 642
306 6
868 668
469 269
654 454
1059 859
1067 867
432 132
292 92
954 754
732 432
1008 708
847 647
1290 990
1061 861
1195 995
1103 903
769 569
708 408
363 163
1140 840
792 492
786 486
594 294
531 331
705 505
843 643
510 310
450 150
796 596
1145 945
762 562
1179 979
381 181
997 797
738 538
232 32
375 175
921 721
1019 819
432 132
984 684
1188 888
441 241
1029 829
